c Generated map
c Size: 10 * 10, weights in range: 1 to 10, walls: False, with ratio 0.0
c dim 1 of 7
c
p sp 100 180
c graph contains 100 nodes and 180 arcs
c
a 1 11 5
a 11 1 5
a 1 2 2
a 2 1 2
a 2 12 4
a 12 2 4
a 2 3 9
a 3 2 9
a 3 13 8
a 13 3 8
a 3 4 7
a 4 3 7
a 4 14 9
a 14 4 9
a 4 5 6
a 5 4 6
a 5 15 7
a 15 5 7
a 5 6 3
a 6 5 3
a 6 16 5
a 16 6 5
a 6 7 6
a 7 6 6
a 7 17 2
a 17 7 2
a 7 8 7
a 8 7 7
a 8 18 7
a 18 8 7
a 8 9 8
a 9 8 8
a 9 19 3
a 19 9 3
a 9 10 2
a 10 9 2
a 10 20 2
a 20 10 2
a 11 21 7
a 21 11 7
a 11 12 1
a 12 11 1
a 12 22 9
a 22 12 9
a 12 13 3
a 13 12 3
a 13 23 7
a 23 13 7
a 13 14 3
a 14 13 3
a 14 24 5
a 24 14 5
a 14 15 2
a 15 14 2
a 15 25 7
a 25 15 7
a 15 16 2
a 16 15 2
a 16 26 10
a 26 16 10
a 16 17 5
a 17 16 5
a 17 27 10
a 27 17 10
a 17 18 2
a 18 17 2
a 18 28 7
a 28 18 7
a 18 19 6
a 19 18 6
a 19 29 6
a 29 19 6
a 19 20 3
a 20 19 3
a 20 30 6
a 30 20 6
a 21 31 4
a 31 21 4
a 21 22 5
a 22 21 5
a 22 32 1
a 32 22 1
a 22 23 5
a 23 22 5
a 23 33 9
a 33 23 9
a 23 24 10
a 24 23 10
a 24 34 6
a 34 24 6
a 24 25 10
a 25 24 10
a 25 35 8
a 35 25 8
a 25 26 6
a 26 25 6
a 26 36 5
a 36 26 5
a 26 27 1
a 27 26 1
a 27 37 3
a 37 27 3
a 27 28 6
a 28 27 6
a 28 38 10
a 38 28 10
a 28 29 10
a 29 28 10
a 29 39 10
a 39 29 10
a 29 30 7
a 30 29 7
a 30 40 9
a 40 30 9
a 31 41 4
a 41 31 4
a 31 32 5
a 32 31 5
a 32 42 6
a 42 32 6
a 32 33 2
a 33 32 2
a 33 43 3
a 43 33 3
a 33 34 3
a 34 33 3
a 34 44 10
a 44 34 10
a 34 35 8
a 35 34 8
a 35 45 5
a 45 35 5
a 35 36 1
a 36 35 1
a 36 46 6
a 46 36 6
a 36 37 9
a 37 36 9
a 37 47 4
a 47 37 4
a 37 38 9
a 38 37 9
a 38 48 3
a 48 38 3
a 38 39 6
a 39 38 6
a 39 49 1
a 49 39 1
a 39 40 8
a 40 39 8
a 40 50 1
a 50 40 1
a 41 51 9
a 51 41 9
a 41 42 2
a 42 41 2
a 42 52 2
a 52 42 2
a 42 43 8
a 43 42 8
a 43 53 7
a 53 43 7
a 43 44 7
a 44 43 7
a 44 54 2
a 54 44 2
a 44 45 1
a 45 44 1
a 45 55 7
a 55 45 7
a 45 46 7
a 46 45 7
a 46 56 2
a 56 46 2
a 46 47 4
a 47 46 4
a 47 57 6
a 57 47 6
a 47 48 8
a 48 47 8
a 48 58 1
a 58 48 1
a 48 49 7
a 49 48 7
a 49 59 4
a 59 49 4
a 49 50 10
a 50 49 10
a 50 60 10
a 60 50 10
a 51 61 9
a 61 51 9
a 51 52 9
a 52 51 9
a 52 62 5
a 62 52 5
a 52 53 6
a 53 52 6
a 53 63 9
a 63 53 9
a 53 54 5
a 54 53 5
a 54 64 3
a 64 54 3
a 54 55 6
a 55 54 6
a 55 65 9
a 65 55 9
a 55 56 5
a 56 55 5
a 56 66 9
a 66 56 9
a 56 57 1
a 57 56 1
a 57 67 2
a 67 57 2
a 57 58 10
a 58 57 10
a 58 68 8
a 68 58 8
a 58 59 5
a 59 58 5
a 59 69 4
a 69 59 4
a 59 60 3
a 60 59 3
a 60 70 3
a 70 60 3
a 61 71 10
a 71 61 10
a 61 62 2
a 62 61 2
a 62 72 4
a 72 62 4
a 62 63 10
a 63 62 10
a 63 73 7
a 73 63 7
a 63 64 7
a 64 63 7
a 64 74 10
a 74 64 10
a 64 65 2
a 65 64 2
a 65 75 9
a 75 65 9
a 65 66 2
a 66 65 2
a 66 76 10
a 76 66 10
a 66 67 10
a 67 66 10
a 67 77 8
a 77 67 8
a 67 68 1
a 68 67 1
a 68 78 10
a 78 68 10
a 68 69 4
a 69 68 4
a 69 79 7
a 79 69 7
a 69 70 1
a 70 69 1
a 70 80 1
a 80 70 1
a 71 81 6
a 81 71 6
a 71 72 4
a 72 71 4
a 72 82 2
a 82 72 2
a 72 73 2
a 73 72 2
a 73 83 4
a 83 73 4
a 73 74 1
a 74 73 1
a 74 84 3
a 84 74 3
a 74 75 1
a 75 74 1
a 75 85 5
a 85 75 5
a 75 76 9
a 76 75 9
a 76 86 3
a 86 76 3
a 76 77 1
a 77 76 1
a 77 87 1
a 87 77 1
a 77 78 5
a 78 77 5
a 78 88 3
a 88 78 3
a 78 79 9
a 79 78 9
a 79 89 1
a 89 79 1
a 79 80 6
a 80 79 6
a 80 90 8
a 90 80 8
a 81 91 10
a 91 81 10
a 81 82 3
a 82 81 3
a 82 92 2
a 92 82 2
a 82 83 2
a 83 82 2
a 83 93 7
a 93 83 7
a 83 84 7
a 84 83 7
a 84 94 9
a 94 84 9
a 84 85 3
a 85 84 3
a 85 95 6
a 95 85 6
a 85 86 6
a 86 85 6
a 86 96 6
a 96 86 6
a 86 87 2
a 87 86 2
a 87 97 9
a 97 87 9
a 87 88 5
a 88 87 5
a 88 98 9
a 98 88 9
a 88 89 5
a 89 88 5
a 89 99 5
a 99 89 5
a 89 90 7
a 90 89 7
a 90 100 4
a 100 90 4
a 91 92 7
a 92 91 7
a 92 93 5
a 93 92 5
a 93 94 8
a 94 93 8
a 94 95 1
a 95 94 1
a 95 96 6
a 96 95 6
a 96 97 9
a 97 96 9
a 97 98 7
a 98 97 7
a 98 99 5
a 99 98 5
a 99 100 5
a 100 99 5
